
Gurobi 7.0.2 (linux64, Matlab) logging started Sun Sep  2 08:38:01 2018


Gurobi 7.0.2 (linux64) logging started Sun Sep  2 08:38:01 2018

Optimize a model with 7696 rows, 11297 columns and 589578 nonzeros
Coefficient statistics:
  Matrix range     [1e+00, 1e+05]
  Objective range  [1e+00, 1e+00]
  Bounds range     [1e+00, 7e+05]
  RHS range        [1e+00, 1e+01]
Iteration    Objective       Primal Inf.    Dual Inf.      Time
       0   -3.8922436e+07   0.000000e+00   0.000000e+00      0s

Solved in 0 iterations and 0.02 seconds
Optimal objective -3.892243600e+07
